--- Job AssignmentA.gms Start 04/26/20 21:24:03 30.3.0 rc5da09e WEX-WEI x86 64bit/MS Windows
--- GAMS Parameters defined
    Input C:\aguadix\GITHUB\SOC\1LinearProgramming\3Assignment\AssignmentA\AssignmentA.gms
    PageSize 0
    ScrDir C:\aguadix\GITHUB\SOC\1LinearProgramming\3Assignment\AssignmentA\225a\
    SysDir C:\GAMS\win64\30.3\
    LogOption 3
    ErrMsg 1
    ErrorLog 99
    IDE 1
    LstTitleLeftAligned 1
GAMS 30.3.0   Copyright (C) 1987-2020 GAMS Development. All rights reserved
Licensee: GAMS Demo license for ANTONIO MARIA GUADIX ESCOG200420|0002CO-GEN
          UNIVERSITY OF GRANADA, Spain                             DL007289
          aguadix@ugr.es, ANTONIO MARIA GUADIX ESCOBAR                     
          Demo license for demonstration and instructional purposes only
--- Starting compilation
--- AssignmentA.gms(42) 2 Mb
--- Starting execution: elapsed 0:00:00.005
--- Generating LP model AssignmentA
--- AssignmentA.gms(42) 3 Mb
---   9 rows  17 columns  49 non-zeroes
--- Executing CPLEX: elapsed 0:00:00.071

IBM ILOG CPLEX   30.3.0 rc5da09e Released Mar 06, 2020 WEI x86 64bit/MS Window
*** This solver runs with a demo license. No commercial use.
Cplex 12.10.0.0

Reading data...
Starting Cplex...
Space for names approximately 0.00 Mb
Use option 'names no' to turn use of names off
Version identifier: 12.10.0.0 | 2019-11-26 | 843d4de2ae
CPXPARAM_Advance                                 0
CPXPARAM_Simplex_Display                         2
CPXPARAM_Threads                                 1
CPXPARAM_Parallel                                1
CPXPARAM_Simplex_Limits_Iterations               2000000000
CPXPARAM_TimeLimit                               1000
CPXPARAM_Tune_TimeLimit                          200
Tried aggregator 1 time.
LP Presolve eliminated 2 rows and 1 columns.
Reduced LP has 7 rows, 16 columns, and 28 nonzeros.
Presolve time = 0.00 sec. (0.02 ticks)
Initializing dual steep norms . . .

Iteration      Dual Objective            In Variable           Out Variable
     1              20.000000                    x23              RD3 artif
     2              21.000000                    x32              RD1 artif
LP status(1): optimal
Cplex Time: 0.00sec (det. 0.03 ticks)

Optimal solution found.
Objective :          21.000000

--- Restarting execution
--- AssignmentA.gms(42) 2 Mb
--- Reading solution for model AssignmentA
*** Status: Normal completion
--- Job AssignmentA.gms Stop 04/26/20 21:24:03 elapsed 0:00:00.190
